
Gurobi 6.5.2 (linux64) logging started Sun Sep 18 18:48:31 2016


Gurobi 6.5.2 (linux64) logging started Sun Sep 18 18:48:31 2016

Optimize a model with 201 rows, 3565 columns and 7131 nonzeros
Coefficient statistics:
  Matrix range    [1e+00, 2e+00]
  Objective range [1e+00, 1e+02]
  Bounds range    [1e+00, 1e+00]
  RHS range       [1e+00, 1e+00]
Presolve removed 101 rows and 100 columns
Presolve time: 0.01s
Presolved: 100 rows, 3465 columns, 6930 nonzeros
Variable types: 0 continuous, 3465 integer (3465 binary)

Root relaxation: objective 8.950000e+02, 143 iterations, 0.00 seconds

    Nodes    |    Current Node    |     Objective Bounds      |     Work
 Expl Unexpl |  Obj  Depth IntInf | Incumbent    BestBd   Gap | It/Node Time

     0     0  895.00000    0   12          -  895.00000      -     -    0s
     0     0  897.00000    0    4          -  897.00000      -     -    0s
     0     0  897.03333    0   17          -  897.03333      -     -    0s
     0     0  897.05000    0   17          -  897.05000      -     -    0s
     0     0  897.09091    0   16          -  897.09091      -     -    0s
     0     0  897.09091    0   16          -  897.09091      -     -    0s
     0     2  897.09091    0   15          -  897.09091      -     -    0s
  4273  2419  903.00000   17    4          -  899.00000      -   6.7    5s
  7664  5126  917.57143   61   10          -  899.55556      -   6.3   10s

Cutting planes:
  Gomory: 7
  Zero half: 5
  Lazy constraints: 1269

Explored 7730 nodes (48738 simplex iterations) in 10.01 seconds
Thread count was 8 (of 8 available processors)

Time limit reached
Best objective -, best bound 9.000000000000e+02, gap -
